22
6 9
6 1
6 7
6 10
6 20
6 15
6 8
6 12
9 14
9 8
9 20
9 18
9 5
9 4
9 10
14 17
14 18
14 5
14 21
14 19
14 1
14 20
17 0
17 2
17 7
17 16
17 21
17 8
17 11
1 11
1 15
1 16
1 19
1 4
1 18
18 19
18 2
18 7
18 12
18 11
19 7
19 10
19 13
19 11
19 5
0 10
0 4
0 2
0 15
0 12
0 16
0 13
10 5
10 15
10 11
10 12
11 2
11 15
11 16
7 15
7 5
7 20
7 4
4 21
4 8
4 2
4 20
13 20
13 12
13 16
13 8
13 5
13 3
20 21
20 2
8 15
8 2
8 3
15 3
5 21
5 3
21 3
21 16
21 12
2 3
3 12
3 16
12 16
